p wcnf 126 189 190 
1 52 32 0 
1 120 -119 0 
1 -54 51 0 
1 107 13 0 
1 16 69 0 
1 -43 62 0 
1 57 14 0 
1 -102 -55 0 
1 -6 -17 0 
1 86 103 0 
1 106 -11 0 
1 -69 105 0 
1 104 102 0 
1 65 -9 0 
1 -82 70 0 
1 -101 -54 0 
1 -4 84 0 
1 1 73 0 
1 -43 47 0 
1 62 -66 0 
1 -114 74 0 
1 92 -36 0 
1 -14 -34 0 
1 49 -114 0 
1 123 -59 0 
1 -46 90 0 
1 -12 26 0 
1 45 12 0 
1 105 -1 0 
1 83 39 0 
1 36 28 0 
1 -89 -10 0 
1 -102 -44 0 
1 -10 61 0 
1 22 -39 0 
1 -121 115 0 
1 -100 16 0 
1 -9 -97 0 
1 53 58 0 
1 -119 50 0 
1 10 101 0 
1 19 -93 0 
1 -98 -99 0 
1 61 115 0 
1 8 -7 0 
1 -25 -19 0 
1 -68 -8 0 
1 85 -47 0 
1 9 -38 0 
1 -90 52 0 
1 -23 101 0 
1 66 -2 0 
1 -99 95 0 
1 123 -106 0 
1 -5 -35 0 
1 16 -63 0 
1 31 -57 0 
1 119 16 0 
1 -9 -71 0 
1 -107 89 0 
1 56 -39 0 
1 -120 21 0 
1 -66 26 0 
1 -22 47 0 
1 71 -116 0 
1 -118 -77 0 
1 95 -103 0 
1 125 -74 0 
1 81 125 0 
1 -7 53 0 
1 -117 40 0 
1 118 -124 0 
1 17 32 0 
1 21 -90 0 
1 -64 76 0 
1 -32 -63 0 
1 100 8 0 
1 -107 -112 0 
1 -56 78 0 
1 -29 -97 0 
1 -53 122 0 
1 -69 84 0 
1 -109 -32 0 
1 -26 51 0 
1 -108 -102 0 
1 72 -55 0 
1 -56 -66 0 
1 31 -63 0 
1 47 45 0 
1 94 51 0 
1 -105 119 0 
1 20 18 0 
1 -42 -40 0 
1 -79 -65 0 
1 -9 7 0 
1 -32 -7 0 
1 115 57 0 
1 19 -121 0 
1 -49 36 0 
1 -33 54 0 
1 -58 -33 0 
1 -26 -3 0 
1 -22 -91 0 
1 98 -95 0 
1 108 -6 0 
1 -124 -116 0 
1 27 24 0 
1 92 -12 0 
1 116 64 0 
1 -46 114 0 
1 101 -20 0 
1 -116 -49 0 
1 -76 -114 0 
1 45 -95 0 
1 -12 -115 0 
1 -77 -54 0 
1 49 124 0 
1 28 32 0 
1 39 49 0 
1 6 49 0 
1 72 51 0 
1 99 -69 0 
1 -107 -51 0 
1 54 -78 0 
1 -32 -124 0 
1 -48 -7 0 
1 -81 -71 0 
1 118 -86 0 
1 54 -69 0 
1 21 -124 0 
1 -1 84 0 
1 87 -92 0 
1 13 -19 0 
1 -25 9 0 
1 69 -86 0 
1 50 11 0 
1 119 -77 0 
1 11 -19 0 
1 92 -38 0 
1 -27 116 0 
1 -30 76 0 
1 -116 -102 0 
1 -67 92 0 
1 -87 23 0 
1 33 30 0 
1 -114 126 0 
1 94 -71 0 
1 -75 -92 0 
1 -20 45 0 
1 -10 105 0 
1 13 124 0 
1 84 116 0 
1 -115 -31 0 
1 65 -83 0 
1 13 -46 0 
1 -58 -29 0 
1 -86 65 0 
1 74 3 0 
1 -70 16 0 
1 -47 89 0 
1 34 -22 0 
1 35 -39 0 
1 -11 95 0 
1 -1 -46 0 
1 -86 -23 0 
1 -2 -101 0 
1 74 -3 0 
1 39 28 0 
1 26 -37 0 
1 -11 118 0 
1 -78 46 0 
1 -15 60 0 
1 55 -49 0 
1 104 49 0 
1 -104 118 0 
1 -92 -106 0 
1 75 44 0 
1 65 -69 0 
1 -17 35 0 
1 -115 -79 0 
1 -119 -96 0 
1 -40 58 0 
1 -97 51 0 
1 105 -89 0 
1 -22 -8 0 
1 -43 102 0 
1 6 59 0 
1 60 50 0 
1 83 73 0 
